NAME : instances/clustered-mixed-tsp/instance-5.tsp
COMMENT : No Comment
TYPE : TSP
DIMENSION: 40
EDGE_WEIGHT_TYPE : EUC_2D
NODE_COORD_SECTION
1 321 853 
2 667 599 
3 635 815 
4 451 919 
5 219 787 
6 271 521 
7 1097 7 
8 63 217 
9 833 39 
10 547 743 
11 -1 505 
12 67 977 
13 35 347 
14 777 -153 
15 483 843 
16 423 537 
17 59 657 
18 -29 275 
19 171 955 
20 379 741 
21 367 337 
22 423 713 
23 207 457 
24 1057 281 
25 477 213 
26 303 929 
27 383 433 
28 15 553 
29 531 653 
30 315 517 
31 251 809 
32 1081 311 
33 235 907 
34 265 597 
35 397 221 
36 459 1051 
37 961 71 
38 333 285 
39 267 793 
40 663 601 
EOF
